(set-info :smt-lib-version 2.6)
(set-logic QF_UFLRA)
(set-info :source |
MathSat group

|)
(set-info :category "random")
(set-info :status unsat)
(declare-fun f0_1 (Real) Real)
(declare-fun f0_2 (Real Real) Real)
(declare-fun f0_3 (Real Real Real) Real)
(declare-fun f0_4 (Real Real Real Real) Real)
(declare-fun f1_1 (Real) Real)
(declare-fun f1_2 (Real Real) Real)
(declare-fun f1_3 (Real Real Real) Real)
(declare-fun f1_4 (Real Real Real Real) Real)
(declare-fun x0 () Real)
(declare-fun x1 () Real)
(declare-fun x2 () Real)
(declare-fun x3 () Real)
(declare-fun x4 () Real)
(declare-fun x5 () Real)
(declare-fun x6 () Real)
(declare-fun x7 () Real)
(declare-fun x8 () Real)
(declare-fun x9 () Real)
(declare-fun x10 () Real)
(declare-fun x11 () Real)
(declare-fun x12 () Real)
(declare-fun x13 () Real)
(declare-fun x14 () Real)
(declare-fun x15 () Real)
(declare-fun x16 () Real)
(declare-fun x17 () Real)
(declare-fun x18 () Real)
(declare-fun x19 () Real)
(declare-fun P0 () Bool)
(declare-fun P1 () Bool)
(declare-fun P2 () Bool)
(declare-fun P3 () Bool)
(declare-fun P4 () Bool)
(declare-fun P5 () Bool)
(declare-fun P6 () Bool)
(declare-fun P7 () Bool)
(declare-fun P8 () Bool)
(declare-fun P9 () Bool)
(declare-fun P10 () Bool)
(declare-fun P11 () Bool)
(declare-fun P12 () Bool)
(declare-fun P13 () Bool)
(declare-fun P14 () Bool)
(declare-fun P15 () Bool)
(declare-fun P16 () Bool)
(declare-fun P17 () Bool)
(declare-fun P18 () Bool)
(declare-fun P19 () Bool)
(assert (let ((?v_69 (* 23 x17)) (?v_2 (* 7 x12)) (?v_199 (f1_2 x6 x11)) (?v_61 (f1_2 x1 x18)) (?v_15 (f0_2 x0 x17))) (let ((?v_184 (f0_2 x1 ?v_15)) (?v_135 (f0_2 x10 x6)) (?v_18 (f0_2 x6 x13)) (?v_6 (f1_2 x15 x14)) (?v_74 (+ (- (* 23 x14) (* 13 x6)) (* 26 x12))) (?v_10 (f0_2 x6 x11)) (?v_11 (f1_2 x9 x7)) (?v_197 (f1_2 x0 x5)) (?v_49 (f0_1 x14)) (?v_76 (f1_1 x19)) (?v_92 (- (+ ?v_2 (* 11 x17)) (* 4 x1))) (?v_84 (f0_2 x18 x5)) (?v_5 (f0_1 x2)) (?v_17 (f1_1 x9)) (?v_28 (f0_1 x17)) (?v_103 (f0_2 x3 x10)) (?v_65 (f0_2 x18 x10)) (?v_110 (f0_1 (f0_2 x13 x2))) (?v_173 (+ (- (* 25 x0) (* 3 x2)) (* 20 x4))) (?v_72 (f1_1 x10))) (let ((?v_148 (< (f0_2 ?v_10 ?v_11) 5)) (?v_27 (< ?v_18 0)) (?v_104 (< ?v_92 14)) (?v_26 (= (f0_2 x14 x12) x15)) (?v_4 (= (- (- ?v_2 (* 5 x11)) (* 2 x4)) ?v_6)) (?v_125 (= ?v_28 x19)) (?v_50 (< ?v_11 10)) (?v_179 (< ?v_184 8)) (?v_176 (= ?v_28 x1)) (?v_3 (= x16 x1)) (?v_235 (< x4 0)) (?v_88 (< ?v_65 26)) (?v_117 (< x12 25)) (?v_31 (= ?v_5 ?v_6)) (?v_159 (< ?v_72 26)) (?v_56 (< ?v_110 17)) (?v_123 (< ?v_76 9)) (?v_156 (< ?v_10 25)) (?v_105 (< ?v_18 18)) (?v_145 (< ?v_135 22)) (?v_228 (< ?v_11 6)) (?v_244 (< x0 3)) (?v_252 (< ?v_11 29)) (?v_70 (< (f0_1 x16) 14)) (?v_78 (< ?v_49 2)) (?v_177 (< ?v_173 17)) (?v_121 (< ?v_135 6)) (?v_99 (< ?v_61 19)) (?v_218 (= ?v_103 x14)) (?v_164 (< (+ (- (* 5 x13) (* 11 x9)) (* 18 x18)) 9)) (?v_14 (< (f0_2 x11 x12) 9)) (?v_12 (< ?v_17 15)) (?v_141 (< x5 10)) (?v_186 (= ?v_173 ?v_92)) (?v_187 (< x19 22)) (?v_144 (< ?v_17 16)) (?v_245 (= ?v_84 ?v_199)) (?v_100 (= ?v_197 ?v_17)) (?v_33 (= x15 x2)) (?v_133 (< (f1_2 x16 x4) 20)) (?v_47 (= x18 x17)) (?v_85 (= ?v_5 (- (- (* 17 x3) (* 2 x7)) (* 9 x4)))) (?v_21 (< ?v_76 29)) (?v_162 (< x3 1))) (let ((?v_19 (not ?v_21)) (?v_58 (not P17)) (?v_8 (not ?v_85)) (?v_22 (not ?v_104)) (?v_196 (not ?v_3)) (?v_57 (not ?v_4)) (?v_36 (not P15)) (?v_45 (not ?v_159)) (?v_153 (not ?v_50)) (?v_94 (not ?v_31)) (?v_59 (not ?v_187)) (?v_97 (not P9)) (?v_202 (not ?v_148)) (?v_178 (not P18)) (?v_60 (not P5)) (?v_216 (not ?v_14)) (?v_39 (not ?v_133)) (?v_160 (not ?v_56)) (?v_180 (not P1)) (?v_118 (not ?v_27)) (?v_185 (not ?v_164)) (?v_128 (not ?v_33)) (?v_52 (not ?v_156)) (?v_40 (not P4)) (?v_172 (not ?v_244)) (?v_169 (not ?v_105)) (?v_181 (not ?v_47)) (?v_87 (not ?v_125)) (?v_168 (not ?v_12)) (?v_132 (not P16))) (let ((?v_232 (or ?v_132 ?v_88)) (?v_139 (not ?v_70)) (?v_137 (not P10)) (?v_213 (not ?v_78)) (?v_161 (not P6)) (?v_222 (not ?v_88)) (?v_108 (not ?v_123)) (?v_155 (not ?v_186)) (?v_237 (not ?v_100)) (?v_154 (not ?v_218)) (?v_140 (not P8)) (?v_119 (not P14)) (?v_188 (not ?v_121)) (?v_257 (not ?v_26)) (?v_225 (not ?v_144)) (?v_170 (not ?v_145)) (?v_241 (not P3)) (?v_209 (not P12)) (?v_174 (not P19)) (?v_214 (not P7)) (?v_198 (not ?v_235)) (?v_189 (not ?v_99)) (?v_254 (not ?v_176)) (?v_229 (not ?v_177)) (?v_205 (not ?v_179)) (?v_217 (not ?v_117)) (?v_212 (not ?v_141)) (?v_207 (not P2)) (?v_204 (not ?v_245)) (?v_226 (not P13)) (?v_242 (not ?v_162)) (?v_227 (not ?v_252)) (?v_250 (not ?v_228)) (?v_247 (not P11)) (?v_258 (or P15 ?v_145)) (?v_253 (not P0)) (?v_129 (< (+ ?v_69 (* 27 x17) (* 14 x4)) 7))) (let ((?v_80 (not ?v_129)) (?v_29 (+ (* 22 x8) (* 10 x11) (* 24 x19)))) (let ((?v_67 (- (- (* 29 ?v_29) (* 24 (f1_2 ?v_15 (f1_1 x18)))) (* 21 ?v_28)))) (let ((?v_16 (< ?v_67 2))) (let ((?v_158 (not ?v_16)) (?v_182 (< ?v_67 23))) (let ((?v_142 (not ?v_182)) (?v_0 (- (- (* (- 24) x5) (* 24 x4)) (* 7 x11)))) (let ((?v_86 (< ?v_0 5)) (?v_1 (< (- (- (* (- 12) x8) (* 19 x16)) (* 13 x2)) 10)) (?v_191 (< x6 (- 10)))) (let ((?v_79 (not ?v_191)) (?v_34 (- (- (* (- 16) x8) (* 23 x6)) x0))) (let ((?v_7 (= ?v_10 ?v_34)) (?v_147 (< ?v_0 27))) (let ((?v_41 (not ?v_147)) (?v_82 (- (- (* (- 21) x8) (* 7 x19)) (* 11 x16)))) (let ((?v_13 (< ?v_82 (- 2)))) (let ((?v_9 (not ?v_13)) (?v_81 (not ?v_1)) (?v_37 (not ?v_7)) (?v_38 (< x3 (- 27))) (?v_51 (< (- (- (* (- 29) x8) (* 3 x17)) (* 22 x11)) 26)) (?v_20 (- (- (* (- 19) x0) (* 17 x12)) (* 3 x16)))) (let ((?v_35 (= (f0_2 x7 x15) ?v_20)) (?v_195 (< (f0_1 x8) (- 16)))) (let ((?v_42 (not ?v_195)) (?v_54 (< x19 (- 6))) (?v_89 (< ?v_18 (- 1))) (?v_25 (< x14 (- 28))) (?v_23 (- (+ (* (- 25) x1) (* 25 x11)) (* 19 x5)))) (let ((?v_107 (< ?v_23 5))) (let ((?v_203 (not ?v_107)) (?v_68 (< x14 (- 10)))) (let ((?v_171 (not ?v_68)) (?v_75 (- (+ (* (- 1) x8) (* 16 x18)) (* 28 x14)))) (let ((?v_24 (= ?v_75 ?v_20)) (?v_157 (< x1 (- 14))) (?v_143 (< x10 (- 5))) (?v_122 (= ?v_49 ?v_23))) (let ((?v_201 (not ?v_24)) (?v_32 (< x8 (- 18)))) (let ((?v_30 (not ?v_32)) (?v_136 (< x14 (- 24))) (?v_73 (- (- (* (- 17) x14) (* 11 x7)) (* 16 x8)))) (let ((?v_109 (< ?v_73 25))) (let ((?v_66 (not ?v_109)) (?v_44 (not ?v_25)) (?v_55 (- (- (* (- 20) ?v_29) (* 27 ?v_74)) (* 5 ?v_61)))) (let ((?v_53 (= ?v_55 ?v_65))) (let ((?v_46 (not ?v_53)) (?v_115 (< x6 (- 22))) (?v_43 (< ?v_34 14)) (?v_126 (< x8 (- 10)))) (let ((?v_48 (not ?v_126)) (?v_255 (not ?v_38)) (?v_231 (< x10 (- 7)))) (let ((?v_77 (not ?v_231)) (?v_93 (< x17 (- 23)))) (let ((?v_102 (not ?v_93)) (?v_95 (< (+ (- (* (- 7) x17) (* 23 x13)) (* 10 x10)) 22)) (?v_120 (not ?v_51)) (?v_101 (< x6 (- 1))) (?v_192 (< ?v_103 (- 11)))) (let ((?v_64 (not ?v_192)) (?v_152 (= ?v_55 x18)) (?v_224 (< ?v_55 0))) (let ((?v_206 (not ?v_224)) (?v_62 (< x17 (- 10))) (?v_71 (< ?v_5 (- 17)))) (let ((?v_251 (not ?v_71)) (?v_98 (= (+ (- (* (- 2) x1) (* 4 x12)) (* 2 x18)) ?v_84))) (let ((?v_63 (not ?v_98)) (?v_90 (not ?v_62)) (?v_114 (not ?v_54)) (?v_131 (< (f0_2 (+ (- ?v_69 (* 20 x18)) (* 6 x3)) ?v_199) (- 1))) (?v_106 (< ?v_72 (- 3)))) (let ((?v_149 (not ?v_106)) (?v_96 (= ?v_73 ?v_74))) (let ((?v_211 (not ?v_96)) (?v_127 (= ?v_75 x1)) (?v_138 (< ?v_76 (- 19)))) (let ((?v_208 (not ?v_138)) (?v_243 (= x6 ?v_82))) (let ((?v_83 (not ?v_243)) (?v_111 (< ?v_84 (- 13))) (?v_116 (not ?v_86)) (?v_146 (< (- (+ (* 25 x19) (* 27 x18)) (* 13 x3)) (- 23))) (?v_130 (not ?v_89)) (?v_91 (< x12 (- 9))) (?v_113 (not ?v_101)) (?v_124 (< ?v_34 7))) (let ((?v_215 (not ?v_124)) (?v_112 (< ?v_34 (- 10))) (?v_150 (not ?v_43)) (?v_134 (< ?v_110 (- 20))) (?v_151 (not ?v_111))) (let ((?v_248 (not ?v_112)) (?v_163 (- (+ (* (- 19) x19) (* 18 x6)) (* 11 x12)))) (let ((?v_193 (< (- (+ (* (- 14) ?v_67) (* 20 ?v_163)) (* 2 ?v_103)) (- 20)))) (let ((?v_165 (not ?v_193)) (?v_183 (not ?v_95)) (?v_190 (not ?v_131)) (?v_175 (not ?v_136)) (?v_220 (not ?v_115)) (?v_167 (< x11 (- 29))) (?v_200 (not ?v_143)) (?v_239 (not ?v_146)) (?v_249 (not ?v_152)) (?v_221 (not ?v_157)) (?v_166 (< ?v_163 28))) (let ((?v_238 (not ?v_166)) (?v_230 (not ?v_167)) (?v_223 (not ?v_127)) (?v_210 (not ?v_122)) (?v_194 (= (f1_2 ?v_184 x4) ?v_75)) (?v_219 (< ?v_197 (- 8))) (?v_233 (not ?v_134)) (?v_236 (not ?v_91)) (?v_234 (not ?v_35)) (?v_246 (or ?v_7 ?v_182)) (?v_259 (or ?v_124 ?v_158))) (let ((?v_240 (not ?v_219)) (?v_256 (not ?v_194))) (and (and (and (and (and (and (and (and (and (and (and (and (and (and (and (and (and (and (and (and (and (and (and (and (and (and (and (and (and (and (and (and (and (and (and (and (and (and (and (and (and (and (and (and (and (and (and (and (and (and (and (and (and (and (and (and (and (and (and (and (and (and (and (and (and (and (and (and (and (and (and (and (and (and (and (and (and (and (and (and (and (and (and (and (and (and (and (and (and (and (and (and (and (and (and (and (and (and (and (and (and (and (and (and (and (and (and (and (and (and (and (and (and (and (and (and (and (and (and (and (and (and (and (and (and (and (and (and (and (and (and (and (and (and (and (and (and (and (and (and (and (and (and (and (and (and (and (and (and (and (and (and (and (and (and (and (and (and (and (and (and (and (and (and (and (and (and (and (and (and (and (and (and (and (and (and (and (and (and (and (and (and (and (and (and (and (and (and (and (and (and (and (and (and (and (and (and (and (and (and (and (and (and (and (and (and (and (and (and (and (and (and (and (and (and (and (and (and (and (and (and (and (and (and (and (and (and (and (and (and (and (and (and (and (and (and (and (and (and (and (and (and (and (and (and (and (and (and (and (and (and (and (and (and (and (and (and (and (and (and (and (and (and (and (and (and (and (and (and (and (and (and (and (and (and (and (and (and (and (and (and (and (and (and (and (and (and (and (and (and (and (and (and (and (and (and (and (and (and (and (and (and (and (and (and (and (and (and (and (and (and (and (and (and (and (and (and (and (and (and (and (and (and (and (and (and (and (and (and (and (and (and (and (and (and (and (and (and (and (and (and (and (and (and (and (and (and (and (and (and (and (and (and (and (and (and (and (and (and (and (and (and (and (and (and (and (and (and (and (and (and (and (and (and (and (and (and (and (and (and (and (and (and (and (and (and (and (and (and (and (and (and (and (and (and (and (and (and (and (and (and (and (and (and (and (and (and (and (and (and (and (and (and (and (and (and (and (and (and (and (and (and (and (and (and (and (and (and (and (and (and (and (and (and (and (and (and (and (and (and (and (and (and (and (and (and (and (and (and (and (and (and (and (and (and (and (and (and (and (and (and (and (and (and (and (and (and (and (and (and (and (and (and (and (and (and (and (and (and (and (and (and (and (and (and (and (and (and (and (and (and (and (and (and (and (and (and (and (and (and (and (and (and (and (and (and (and (and (and (and (and (and (and (and (and (and (and (and (and (and (and (and (and (and (and (and (and (and (and (and (and (and (and (and (and (and (and (and (and (and (and (and (and (and (and (and (and (and (and (and (and (and (and (and (and (and (and (and (and (and (and (and (and (and (and (and (and (and (and (and (and (and (and (and (and (and (and (and (and (and (and (and (and (and (and (and (and (and (and (and (and (and (and (and (and (and (and (and (and (or (or P18 ?v_86) ?v_1) (or (or ?v_4 ?v_19) ?v_79)) (or (or ?v_33 P9) ?v_179)) (or (or ?v_58 ?v_7) ?v_12)) (or (or ?v_27 ?v_3) ?v_41)) (or (or ?v_8 ?v_80) ?v_9)) (or (or ?v_81 ?v_22) ?v_196)) (or (or ?v_57 ?v_36) ?v_45)) (or (or ?v_153 ?v_14) ?v_94)) (or (or ?v_59 P1) ?v_97)) (or (or ?v_37 ?v_38) ?v_8)) (or (or ?v_4 ?v_9) ?v_202)) (or (or ?v_51 ?v_35) ?v_178)) (or (or ?v_42 ?v_12) ?v_60)) (or (or ?v_13 ?v_216) ?v_16)) (or (or ?v_39 ?v_158) ?v_54)) (or (or ?v_100 ?v_89) ?v_47)) (or (or P6 P19) ?v_160)) (or (or P3 ?v_25) ?v_203)) (or (or ?v_19 ?v_171) ?v_24)) (or (or ?v_157 ?v_21) ?v_22)) (or (or ?v_143 ?v_121) ?v_122)) (or (or ?v_26 ?v_201) ?v_180)) (or (or ?v_30 ?v_136) ?v_1)) (or (or ?v_66 ?v_70) ?v_44)) (or (or ?v_26 ?v_118) ?v_176)) (or (or P1 ?v_46) ?v_185)) (or (or ?v_30 P11) ?v_31)) (or (or ?v_32 ?v_128) ?v_115)) (or (or ?v_43 ?v_35) ?v_52)) (or (or ?v_36 ?v_37) P8)) (or (or ?v_48 ?v_40) ?v_172)) (or (or ?v_255 ?v_77) ?v_39)) (or (or ?v_13 ?v_1) ?v_40)) (or (or ?v_41 ?v_42) ?v_43)) (or (or ?v_44 ?v_45) ?v_46)) (or (or ?v_31 ?v_47) ?v_48)) (or (or ?v_102 ?v_169) ?v_47)) (or (or ?v_95 ?v_78) ?v_50)) (or (or ?v_120 ?v_40) P0)) (or (or ?v_52 ?v_16) ?v_53)) (or (or ?v_54 ?v_26) ?v_181)) (or (or ?v_101 ?v_64) ?v_152)) (or (or ?v_16 ?v_56) ?v_26)) (or (or ?v_206 ?v_62) ?v_57)) (or (or ?v_87 ?v_168) ?v_251)) (or (or ?v_58 ?v_59) ?v_60)) (or (or ?v_63 ?v_99) ?v_90)) (or (or P14 ?v_63) ?v_64)) (or ?v_232 ?v_66)) (or (or ?v_142 ?v_68) ?v_114)) (or (or ?v_131 ?v_53) ?v_139)) (or (or ?v_58 ?v_41) ?v_19)) (or (or ?v_71 ?v_9) ?v_149)) (or (or ?v_211 ?v_127) ?v_43)) (or (or ?v_137 ?v_208) ?v_77)) (or (or ?v_31 ?v_45) ?v_37)) (or (or ?v_213 ?v_161) P12)) (or (or ?v_79 ?v_80) ?v_81)) (or (or ?v_14 ?v_68) ?v_83)) (or (or ?v_1 P6) ?v_83)) (or (or ?v_111 ?v_85) ?v_116)) (or (or ?v_87 ?v_77) ?v_117)) (or (or ?v_36 ?v_24) ?v_222)) (or (or ?v_108 ?v_146) ?v_130)) (or (or ?v_12 ?v_16) ?v_39)) (or (or ?v_25 ?v_91) ?v_90)) (or (or ?v_91 ?v_155) ?v_93)) (or (or ?v_94 ?v_7) ?v_95)) (or (or ?v_96 ?v_97) ?v_79)) (or (or ?v_98 ?v_99) ?v_237)) (or (or ?v_1 ?v_113) ?v_102)) (or (or ?v_215 ?v_154) ?v_27)) (or (or ?v_3 ?v_104) ?v_80)) (or (or ?v_112 ?v_105) ?v_54)) (or (or ?v_106 P7) ?v_77)) (or (or ?v_107 ?v_108) ?v_150)) (or (or ?v_109 P10) ?v_134)) (or (or ?v_12 ?v_141) ?v_151)) (or (or ?v_83 ?v_248) ?v_113)) (or (or ?v_91 ?v_140) ?v_114)) (or (or ?v_115 ?v_119) ?v_116)) (or (or ?v_165 ?v_183) ?v_117)) (or (or ?v_63 ?v_118) ?v_119)) (or (or ?v_120 ?v_188) ?v_122)) (or (or ?v_123 ?v_124) P18)) (or (or ?v_125 ?v_114) P1)) (or (or ?v_87 ?v_14) ?v_257)) (or (or ?v_122 ?v_126) ?v_127)) (or (or ?v_64 ?v_24) ?v_128)) (or (or ?v_129 ?v_130) ?v_44)) (or (or P7 ?v_190) ?v_132)) (or (or ?v_30 ?v_100) ?v_112)) (or (or ?v_133 ?v_115) ?v_134)) (or (or ?v_145 ?v_175) ?v_46)) (or (or P16 ?v_137) ?v_138)) (or (or ?v_105 ?v_35) ?v_32)) (or (or ?v_130 ?v_139) ?v_140)) (or (or ?v_48 ?v_91) ?v_220)) (or (or ?v_225 ?v_141) ?v_57)) (or (or ?v_83 ?v_25) ?v_142)) (or (or ?v_143 ?v_144) ?v_167)) (or (or P6 ?v_35) ?v_170)) (or (or ?v_200 ?v_68) ?v_239)) (or (or P13 ?v_132) ?v_113)) (or (or ?v_147 ?v_64) ?v_71)) (or (or ?v_148 ?v_22) ?v_129)) (or (or ?v_149 ?v_150) ?v_241)) (or (or ?v_44 ?v_106) ?v_8)) (or (or ?v_151 ?v_64) ?v_141)) (or (or ?v_162 P8) ?v_59)) (or (or ?v_249 ?v_153) ?v_16)) (or (or ?v_154 ?v_124) ?v_99)) (or (or P3 ?v_155) ?v_156)) (or (or ?v_157 ?v_146) ?v_99)) (or (or ?v_158 ?v_41) ?v_119)) (or (or ?v_159 ?v_89) P3)) (or (or ?v_128 P12) ?v_160)) (or (or ?v_83 ?v_46) ?v_221)) (or (or ?v_158 ?v_161) ?v_162)) (or (or ?v_24 ?v_98) ?v_238)) (or (or ?v_62 ?v_209) ?v_68)) (or (or ?v_164 ?v_155) ?v_52)) (or (or ?v_165 ?v_104) ?v_166)) (or (or ?v_136 ?v_141) ?v_91)) (or (or ?v_4 ?v_230) ?v_129)) (or (or ?v_174 ?v_136) ?v_168)) (or (or ?v_142 ?v_148) ?v_165)) (or (or ?v_153 ?v_114) ?v_169)) (or (or ?v_223 ?v_96) ?v_117)) (or (or ?v_143 ?v_134) ?v_131)) (or (or ?v_158 ?v_12) ?v_43)) (or (or ?v_106 ?v_86) ?v_37)) (or (or ?v_140 ?v_107) ?v_138)) (or (or ?v_157 ?v_170) ?v_214)) (or (or ?v_198 ?v_210) ?v_171)) (or (or ?v_189 ?v_172) ?v_177)) (or (or ?v_26 ?v_80) ?v_174)) (or (or ?v_175 ?v_120) ?v_7)) (or (or ?v_21 P5) ?v_254)) (or (or ?v_229 ?v_130) ?v_178)) (or (or ?v_106 ?v_131) ?v_170)) (or (or ?v_113 ?v_140) ?v_126)) (or (or ?v_205 ?v_125) ?v_148)) (or (or ?v_36 ?v_91) ?v_125)) (or (or ?v_58 ?v_157) ?v_162)) (or (or ?v_109 ?v_27) ?v_180)) (or (or ?v_39 ?v_181) ?v_8)) (or (or ?v_94 ?v_70) ?v_217)) (or (or P11 P1) ?v_182)) (or (or ?v_183 ?v_94) ?v_88)) (or (or P19 ?v_147) ?v_194)) (or (or ?v_24 ?v_212) ?v_142)) (or (or ?v_56 ?v_126) ?v_185)) (or (or ?v_36 ?v_186) ?v_99)) (or (or P14 ?v_112) P9)) (or (or P4 ?v_24) ?v_87)) (or (or P11 ?v_128) ?v_161)) (or (or ?v_187 ?v_181) ?v_21)) (or (or ?v_119 ?v_37) ?v_188)) (or (or ?v_189 ?v_155) ?v_38)) (or (or ?v_168 ?v_132) ?v_190)) (or (or ?v_207 ?v_152) ?v_124)) (or (or ?v_102 ?v_136) ?v_191)) (or (or P12 ?v_51) ?v_126)) (or (or ?v_32 ?v_192) ?v_228)) (or (or ?v_19 ?v_193) ?v_108)) (or (or P8 ?v_161) ?v_40)) (or (or P5 ?v_194) ?v_189)) (or (or ?v_195 ?v_196) ?v_188)) (or (or ?v_219 ?v_198) ?v_204)) (or (or ?v_89 ?v_179) ?v_162)) (or (or ?v_136 ?v_200) ?v_201)) (or (or ?v_233 ?v_119) ?v_101)) (or (or ?v_201 ?v_66) ?v_202)) (or (or ?v_60 ?v_203) ?v_64)) (or (or ?v_71 ?v_194) ?v_27)) (or (or ?v_204 ?v_113) ?v_205)) (or (or ?v_41 ?v_180) ?v_40)) (or (or ?v_77 P12) ?v_66)) (or (or ?v_206 P10) P17)) (or (or ?v_93 P1) ?v_151)) (or (or ?v_121 ?v_207) ?v_59)) (or (or ?v_208 ?v_56) ?v_41)) (or (or ?v_209 ?v_192) ?v_210)) (or (or ?v_136 ?v_104) ?v_80)) (or (or ?v_50 ?v_211) ?v_212)) (or (or ?v_88 ?v_213) ?v_236)) (or (or ?v_214 ?v_97) ?v_215)) (or (or ?v_234 ?v_116) ?v_211)) (or (or ?v_145 ?v_77) ?v_153)) (or (or ?v_80 ?v_27) ?v_100)) (or (or ?v_47 ?v_210) ?v_134)) (or (or ?v_179 ?v_87) ?v_216)) (or (or P14 ?v_217) ?v_58)) (or (or ?v_218 ?v_106) ?v_161)) (or (or ?v_37 ?v_94) ?v_208)) (or (or ?v_94 ?v_167) ?v_104)) (or (or ?v_226 P12) ?v_161)) (or (or P7 ?v_119) ?v_168)) (or (or P1 ?v_4) ?v_187)) (or (or ?v_219 ?v_202) ?v_124)) (or (or ?v_112 ?v_37) ?v_242)) (or (or P15 P7) ?v_153)) (or (or ?v_53 ?v_115) ?v_138)) (or (or ?v_81 ?v_91) ?v_118)) (or (or ?v_45 ?v_96) ?v_204)) (or (or ?v_220 ?v_121) ?v_227)) (or (or ?v_40 ?v_41) ?v_187)) (or (or ?v_25 ?v_188) ?v_97)) (or (or ?v_221 ?v_222) ?v_36)) (or (or ?v_211 ?v_138) ?v_125)) (or (or ?v_40 P13) ?v_223)) (or (or ?v_63 ?v_222) ?v_41)) (or (or ?v_106 ?v_16) ?v_151)) (or (or ?v_224 ?v_225) P11)) (or (or ?v_48 ?v_90) ?v_51)) (or (or ?v_165 ?v_89) ?v_226)) (or ?v_246 ?v_58)) (or (or P18 ?v_27) ?v_139)) (or (or ?v_211 ?v_227) ?v_216)) (or (or ?v_120 P11) ?v_112)) (or (or ?v_250 ?v_4) ?v_137)) (or (or ?v_180 ?v_45) ?v_121)) (or (or ?v_203 ?v_46) ?v_41)) (or (or ?v_191 ?v_138) ?v_166)) (or (or ?v_159 ?v_114) ?v_71)) (or (or P0 ?v_218) P13)) (or (or ?v_229 ?v_94) ?v_35)) (or (or ?v_158 ?v_119) ?v_198)) (or (or ?v_164 P6) ?v_214)) (or (or ?v_211 ?v_91) ?v_106)) (or (or ?v_114 P8) P9)) (or (or P17 ?v_68) ?v_25)) (or (or ?v_22 ?v_117) ?v_85)) (or (or ?v_56 ?v_36) ?v_215)) (or (or ?v_95 ?v_187) ?v_64)) (or ?v_259 ?v_35)) (or (or ?v_156 ?v_57) ?v_230)) (or (or ?v_231 ?v_41) P10)) (or (or ?v_99 P16) ?v_157)) (or (or P8 ?v_31) ?v_127)) (or (or ?v_134 ?v_96) ?v_128)) (or (or ?v_230 ?v_66) ?v_45)) (or (or P16 ?v_147) ?v_62)) (or ?v_232 ?v_157)) (or (or ?v_160 ?v_202) ?v_95)) (or (or ?v_204 ?v_16) ?v_133)) (or (or ?v_97 ?v_27) ?v_151)) (or (or ?v_177 ?v_31) ?v_118)) (or (or ?v_90 ?v_213) ?v_150)) (or (or ?v_203 ?v_198) ?v_233)) (or (or ?v_148 ?v_218) ?v_116)) (or (or ?v_208 ?v_93) ?v_174)) (or (or ?v_223 ?v_22) ?v_233)) (or (or ?v_38 ?v_207) ?v_1)) (or (or ?v_213 ?v_139) ?v_96)) (or (or ?v_221 ?v_160) P14)) (or (or ?v_107 ?v_150) P13)) (or (or ?v_86 ?v_217) ?v_213)) (or (or ?v_234 ?v_120) ?v_200)) (or (or ?v_168 ?v_98) ?v_190)) (or (or ?v_107 ?v_159) ?v_100)) (or (or ?v_193 ?v_187) ?v_35)) (or (or ?v_240 ?v_19) ?v_130)) (or (or ?v_105 ?v_172) ?v_220)) (or (or ?v_159 ?v_149) ?v_179)) (or (or ?v_8 ?v_150) ?v_205)) (or (or ?v_194 ?v_172) ?v_56)) (or (or ?v_177 ?v_130) ?v_160)) (or (or ?v_166 ?v_112) ?v_124)) (or (or ?v_168 ?v_94) ?v_30)) (or (or ?v_141 ?v_235) ?v_137)) (or (or ?v_50 ?v_236) ?v_129)) (or (or ?v_57 ?v_127) ?v_169)) (or (or ?v_78 P5) P3)) (or (or ?v_104 ?v_176) ?v_198)) (or (or ?v_138 ?v_223) ?v_237)) (or (or ?v_214 P12) ?v_118)) (or (or ?v_155 ?v_7) P2)) (or (or ?v_79 ?v_47) ?v_81)) (or (or ?v_90 ?v_104) ?v_13)) (or (or ?v_238 P4) ?v_124)) (or (or ?v_189 ?v_212) ?v_62)) (or (or ?v_233 ?v_114) ?v_83)) (or (or ?v_138 ?v_19) ?v_85)) (or (or ?v_237 ?v_9) ?v_102)) (or (or ?v_179 ?v_22) ?v_147)) (or (or ?v_54 ?v_80) ?v_239)) (or (or ?v_218 ?v_128) ?v_240)) (or (or ?v_143 ?v_1) ?v_190)) (or (or ?v_241 ?v_38) ?v_102)) (or (or ?v_242 ?v_156) ?v_21)) (or (or ?v_63 P19) P1)) (or (or ?v_238 ?v_7) ?v_208)) (or (or ?v_83 ?v_60) P7)) (or (or ?v_240 ?v_111) ?v_247)) (or (or ?v_107 ?v_106) P15)) (or (or ?v_126 ?v_170) ?v_185)) (or (or ?v_183 ?v_217) ?v_134)) (or (or ?v_93 ?v_192) ?v_14)) (or (or ?v_236 ?v_116) ?v_196)) (or (or ?v_231 ?v_77) ?v_243)) (or (or ?v_221 ?v_144) ?v_13)) (or (or ?v_37 P5) ?v_43)) (or (or P7 ?v_122) ?v_119)) (or (or ?v_244 ?v_181) ?v_205)) (or (or ?v_31 P3) ?v_21)) (or (or ?v_123 ?v_68) ?v_224)) (or (or ?v_144 ?v_137) ?v_80)) (or (or ?v_181 ?v_172) ?v_177)) (or (or ?v_183 ?v_57) P7)) (or (or P12 ?v_171) ?v_70)) (or (or ?v_42 ?v_245) ?v_159)) (or (or ?v_165 ?v_155) ?v_222)) (or ?v_246 ?v_119)) (or (or ?v_210 ?v_231) ?v_237)) (or (or P15 ?v_192) ?v_32)) (or (or ?v_36 ?v_244) ?v_112)) (or (or ?v_130 ?v_221) ?v_119)) (or (or ?v_63 ?v_58) ?v_217)) (or (or ?v_247 ?v_248) ?v_172)) (or (or ?v_91 ?v_7) ?v_249)) (or (or ?v_136 ?v_19) P3)) (or (or ?v_152 ?v_99) ?v_90)) (or (or P16 ?v_21) ?v_231)) (or (or ?v_200 ?v_223) ?v_53)) (or (or ?v_128 P16) ?v_195)) (or (or ?v_250 ?v_249) ?v_13)) (or (or ?v_140 ?v_22) P7)) (or (or ?v_90 P18) ?v_64)) (or (or ?v_143 ?v_175) ?v_122)) (or (or ?v_162 ?v_115) ?v_136)) (or (or ?v_181 ?v_134) ?v_183)) (or (or ?v_157 ?v_227) ?v_31)) (or (or ?v_148 ?v_35) ?v_117)) (or (or ?v_78 ?v_251) ?v_203)) (or (or ?v_30 ?v_58) ?v_1)) (or (or ?v_171 ?v_166) P6)) (or (or ?v_256 P3) ?v_225)) (or (or ?v_153 ?v_207) ?v_40)) (or (or ?v_218 ?v_54) ?v_196)) (or (or ?v_166 ?v_54) ?v_33)) (or (or ?v_95 ?v_113) ?v_7)) (or (or ?v_79 ?v_155) ?v_13)) (or (or ?v_52 ?v_190) P4)) (or (or ?v_186 P19) ?v_53)) (or (or ?v_238 ?v_117) ?v_149)) (or (or P12 ?v_134) ?v_136)) (or (or ?v_148 ?v_88) ?v_160)) (or (or ?v_175 ?v_124) ?v_91)) (or (or P16 ?v_169) ?v_71)) (or (or ?v_169 ?v_126) P13)) (or (or P18 ?v_105) ?v_208)) (or ?v_258 ?v_188)) (or (or ?v_234 ?v_1) ?v_95)) (or (or ?v_97 ?v_60) ?v_245)) (or (or ?v_253 ?v_109) ?v_7)) (or (or ?v_189 ?v_43) ?v_214)) (or (or ?v_247 ?v_216) ?v_219)) (or (or ?v_79 ?v_212) ?v_44)) (or (or ?v_124 ?v_133) ?v_106)) (or (or ?v_147 ?v_161) ?v_51)) (or (or ?v_208 ?v_158) ?v_140)) (or (or ?v_237 ?v_41) ?v_78)) (or (or ?v_223 ?v_16) ?v_166)) (or (or ?v_227 ?v_214) ?v_102)) (or (or ?v_4 P13) ?v_116)) (or (or ?v_229 ?v_145) ?v_148)) (or (or ?v_204 ?v_79) ?v_88)) (or (or ?v_12 ?v_223) ?v_122)) (or (or ?v_87 ?v_93) ?v_207)) (or (or ?v_228 ?v_154) ?v_212)) (or (or ?v_139 ?v_145) ?v_22)) (or (or ?v_252 ?v_146) ?v_128)) (or (or ?v_7 ?v_191) ?v_108)) (or (or ?v_213 ?v_95) ?v_33)) (or (or ?v_165 ?v_26) P1)) (or (or ?v_97 ?v_191) ?v_183)) (or (or ?v_233 ?v_105) P1)) (or (or ?v_218 P7) ?v_244)) (or (or ?v_117 ?v_117) ?v_190)) (or (or ?v_80 ?v_111) ?v_187)) (or (or ?v_147 ?v_35) ?v_191)) (or (or ?v_57 ?v_89) P3)) (or (or ?v_228 ?v_209) ?v_57)) (or (or ?v_237 ?v_190) ?v_253)) (or (or ?v_114 ?v_106) ?v_180)) (or (or P9 ?v_86) ?v_127)) (or (or ?v_42 ?v_186) ?v_134)) (or (or ?v_95 P12) ?v_66)) (or (or ?v_185 ?v_130) ?v_169)) (or (or ?v_218 ?v_63) ?v_44)) (or (or ?v_144 ?v_109) ?v_43)) (or (or ?v_249 ?v_157) ?v_54)) (or (or P6 ?v_217) ?v_215)) (or (or ?v_170 ?v_176) ?v_227)) (or (or ?v_122 P19) ?v_181)) (or (or ?v_32 ?v_218) ?v_120)) (or (or ?v_144 P4) ?v_33)) (or (or ?v_188 ?v_46) ?v_19)) (or (or ?v_252 ?v_21) ?v_239)) (or (or ?v_150 ?v_211) ?v_47)) (or (or ?v_219 ?v_7) ?v_254)) (or (or ?v_174 P8) ?v_12)) (or (or P12 ?v_113) ?v_215)) (or (or ?v_189 ?v_83) ?v_124)) (or (or P12 ?v_32) ?v_152)) (or (or ?v_66 ?v_116) ?v_168)) (or (or ?v_63 ?v_251) P18)) (or (or ?v_116 ?v_176) ?v_44)) (or (or ?v_179 ?v_254) ?v_255)) (or (or ?v_230 ?v_201) ?v_256)) (or (or P1 ?v_216) ?v_26)) (or (or ?v_152 ?v_147) ?v_87)) (or (or ?v_194 ?v_201) P3)) (or (or ?v_149 ?v_9) ?v_132)) (or (or ?v_88 ?v_240) ?v_77)) (or (or ?v_202 ?v_1) ?v_245)) (or (or ?v_220 ?v_240) ?v_228)) (or (or P18 ?v_182) P14)) (or (or ?v_7 ?v_160) ?v_191)) (or (or ?v_48 ?v_58) ?v_133)) (or (or ?v_234 ?v_257) ?v_202)) (or (or ?v_50 ?v_56) ?v_16)) (or (or ?v_94 ?v_19) ?v_111)) (or (or ?v_242 ?v_239) ?v_33)) (or (or ?v_22 ?v_53) ?v_127)) (or (or ?v_147 ?v_63) ?v_137)) (or (or ?v_248 ?v_146) ?v_253)) (or (or ?v_108 ?v_137) ?v_111)) (or (or ?v_170 ?v_227) ?v_68)) (or (or ?v_71 ?v_186) ?v_35)) (or (or ?v_13 ?v_170) ?v_177)) (or (or ?v_39 ?v_46) ?v_80)) (or (or ?v_156 ?v_9) ?v_90)) (or (or ?v_243 ?v_150) P9)) (or (or ?v_19 ?v_247) ?v_203)) (or (or ?v_176 ?v_214) ?v_178)) (or (or ?v_209 ?v_182) P1)) (or (or ?v_128 ?v_226) ?v_174)) (or (or ?v_57 ?v_21) ?v_158)) (or (or ?v_192 ?v_227) ?v_150)) (or (or ?v_182 ?v_166) ?v_58)) (or (or ?v_30 ?v_229) ?v_144)) (or (or ?v_151 ?v_257) P10)) (or (or ?v_196 ?v_24) ?v_218)) (or (or ?v_44 P6) ?v_91)) (or (or ?v_210 ?v_127) ?v_220)) (or (or ?v_147 ?v_22) ?v_138)) (or (or ?v_192 ?v_106) ?v_19)) (or (or ?v_25 ?v_66) ?v_102)) (or (or ?v_188 ?v_170) ?v_118)) (or (or ?v_100 ?v_168) P9)) (or (or ?v_236 ?v_137) P14)) (or (or ?v_7 ?v_36) ?v_22)) (or (or P11 ?v_93) ?v_159)) (or (or ?v_71 ?v_132) ?v_230)) (or (or ?v_152 ?v_168) ?v_106)) (or (or ?v_256 ?v_248) ?v_156)) (or (or ?v_141 ?v_142) ?v_4)) (or (or ?v_240 ?v_21) ?v_143)) (or (or ?v_130 ?v_191) ?v_231)) (or (or ?v_62 ?v_83) ?v_214)) (or (or ?v_35 ?v_141) ?v_181)) (or (or ?v_38 ?v_213) ?v_214)) (or (or ?v_94 P16) ?v_252)) (or (or ?v_170 ?v_175) ?v_185)) (or (or P19 ?v_45) ?v_104)) (or (or ?v_16 ?v_205) ?v_206)) (or (or ?v_38 ?v_217) ?v_167)) (or (or ?v_201 ?v_98) ?v_62)) (or (or ?v_158 ?v_231) ?v_4)) (or (or ?v_187 ?v_158) ?v_99)) (or (or ?v_152 ?v_27) ?v_100)) (or (or ?v_126 ?v_9) ?v_44)) (or (or ?v_209 ?v_126) ?v_128)) (or (or ?v_119 ?v_217) ?v_132)) (or (or ?v_168 ?v_176) ?v_50)) (or (or ?v_14 P4) ?v_26)) (or (or ?v_83 ?v_36) ?v_143)) (or (or ?v_207 ?v_205) ?v_68)) (or ?v_258 ?v_167)) (or ?v_259 ?v_112)) (or (or ?v_169 ?v_59) ?v_71)) (or (or ?v_88 ?v_136) ?v_80)) (or (or ?v_175 ?v_54) ?v_112)) (or (or ?v_80 ?v_16) ?v_99)) (or (or ?v_14 P7) ?v_213)) (or (or ?v_77 ?v_31) ?v_192)) (or (or P3 ?v_257) ?v_238)) (or (or ?v_126 ?v_107) ?v_45)) (or (or ?v_231 P4) ?v_244)) (or (or ?v_108 ?v_169) ?v_153)) (or (or ?v_53 ?v_68) ?v_94)) (or (or ?v_187 ?v_58) ?v_114)) (or (or ?v_129 P14) ?v_172)) (or (or ?v_131 ?v_129) ?v_185)) (or (or ?v_127 P13) P14)) (or (or ?v_41 ?v_219) ?v_63)) (or (or ?v_156 ?v_123) ?v_172)) (or (or ?v_193 ?v_37) P16)) (or (or ?v_222 ?v_3) ?v_132)) (or (or ?v_145 ?v_1) ?v_78)) (or (or ?v_159 ?v_80) ?v_186)) (or (or ?v_133 ?v_254) ?v_33)) (or (or ?v_91 ?v_148) ?v_63)) (or (or P13 ?v_37) ?v_209)) (or (or ?v_181 ?v_145) ?v_204)) (or (or ?v_190 ?v_118) ?v_228)) (or (or ?v_100 ?v_58) P14)) (or (or ?v_119 P2) ?v_238)) (or (or ?v_40 ?v_59) ?v_235)) (or (or ?v_234 ?v_188) P2)) (or (or ?v_71 ?v_233) ?v_27)) (or (or ?v_124 ?v_120) ?v_229)) (or (or ?v_190 ?v_167) ?v_19)) (or (or ?v_141 ?v_86) ?v_42)) (or (or ?v_228 ?v_1) ?v_243)) (or (or ?v_203 ?v_217) ?v_180)) (or (or ?v_187 ?v_109) ?v_167)) (or (or ?v_223 ?v_113) ?v_30)) (or (or ?v_48 ?v_95) ?v_91)) (or (or ?v_105 ?v_200) ?v_13)) (or (or ?v_253 ?v_226) ?v_96)) (or (or ?v_183 ?v_70) ?v_225)) (or (or ?v_195 ?v_96) ?v_13)) (or (or ?v_168 ?v_239) ?v_252)) (or (or ?v_144 ?v_13) ?v_57)) (or (or ?v_172 ?v_25) ?v_218)) (or (or ?v_22 ?v_140) ?v_64)) (or (or ?v_256 ?v_190) ?v_198)) (or (or ?v_220 ?v_229) ?v_37)) (or (or P2 ?v_229) P4)) (or (or ?v_104 ?v_9) ?v_185)) (or (or ?v_218 ?v_131) ?v_251)) (or (or ?v_210 ?v_109) ?v_152)) (or (or ?v_13 ?v_182) ?v_105)) (or (or ?v_233 P15) ?v_1)) (or (or ?v_90 ?v_64) ?v_130)) (or (or ?v_26 ?v_178) ?v_227)) (or (or ?v_115 ?v_3) ?v_88)) (or (or ?v_138 P7) ?v_46)) (or (or ?v_36 ?v_123) ?v_52)) (or (or ?v_191 ?v_193) ?v_145)) (or (or ?v_157 ?v_45) ?v_144)) (or (or ?v_68 ?v_16) ?v_44)) (or (or ?v_207 ?v_100) ?v_157)) (or (or ?v_145 ?v_214) ?v_129)) (or (or ?v_158 ?v_170) ?v_137)) (or (or ?v_46 ?v_172) ?v_192)) (or (or ?v_210 P7) ?v_168)) (or (or ?v_134 ?v_190) ?v_223)) (or (or P16 ?v_136) ?v_146)) (or (or ?v_54 P2) ?v_159)) (or (or ?v_218 ?v_202) ?v_239)) (or (or ?v_149 ?v_171) ?v_257)) (or (or ?v_198 ?v_202) ?v_8)) (or (or ?v_145 ?v_35) ?v_244)) (or (or P17 ?v_255) ?v_22)) (or (or ?v_233 ?v_143) ?v_210)) (or (or ?v_189 ?v_248) ?v_43)) (or (or ?v_143 ?v_123) ?v_178)) (or (or ?v_59 ?v_96) ?v_152)) (or (or ?v_185 ?v_89) ?v_66)) (or (or ?v_154 ?v_37) ?v_257)) (or (or ?v_183 ?v_207) ?v_94)) (or (or ?v_91 P2) ?v_140)) (or (or ?v_37 ?v_188) ?v_132)) (or (or ?v_241 ?v_1) ?v_164)) (or (or ?v_230 ?v_26) ?v_60)) (or (or ?v_152 ?v_98) ?v_26)) (or (or ?v_195 ?v_144) ?v_126)) (or (or ?v_227 ?v_22) ?v_68)) (or (or ?v_243 ?v_53) P18)) (or (or ?v_38 ?v_237) ?v_240)) (or (or ?v_189 ?v_105) ?v_132)) (or (or ?v_9 ?v_255) ?v_242)) (or (or ?v_48 ?v_41) ?v_121)) (or (or ?v_107 ?v_115) ?v_70)) (or (or ?v_162 ?v_87) P16)) (or (or ?v_66 ?v_124) ?v_104)) (or (or ?v_4 ?v_50) ?v_251)) (or (or ?v_190 ?v_12) ?v_108)) (or (or ?v_38 ?v_143) ?v_1)) (or (or ?v_58 ?v_227) P19)) (or (or ?v_125 ?v_107) ?v_202)) (or (or ?v_202 ?v_37) P16)) (or (or ?v_194 ?v_195) ?v_125)) (or (or ?v_119 ?v_255) ?v_130)) (or (or ?v_130 ?v_115) ?v_3)) (or (or ?v_48 ?v_128) ?v_256)) (or (or ?v_192 ?v_149) ?v_134)) (or (or ?v_155 ?v_209) ?v_126)) (or (or P12 ?v_22) ?v_38)) (or (or ?v_233 ?v_223) ?v_231)) (or (or ?v_169 ?v_25) ?v_140)) (or (or P9 ?v_241) ?v_137)) (or (or P4 ?v_182) ?v_127)) (or (or P4 ?v_132) ?v_168))))))))))))))))))))))))))))))))))))))))))))))))
(check-sat)
(exit)
